% demand
num_movements = 40;
loading_factor = [1750, 900, 1950, 1300, 1750, 1950, 1350, 1450, 1850, 1550, 2000, 1250, 1750, 950, 900, 1800, 800, 850, 1400, 1900, 1550, 1000, 1900, 2000, 1700, 800, 1950, 1550, 2000, 850, 800, 950, 1650, 1800, 1150, 1200, 1500, 1150, 1700, 1500];
pickup_time = [0, 0, 0, 1, 1, 1, 1, 1, 2, 4, 4, 4, 4, 4, 4, 5, 5, 6, 6, 6, 7, 7, 7, 7, 7, 9, 9, 10, 10, 10, 10, 10, 10, 10, 10, 12, 12, 12, 12, 12];
delivery_time = [5, 4, 1, 2, 4, 4, 4, 4, 4, 6, 9, 6, 6, 6, 6, 6, 6, 8, 7, 7, 9, 9, 9, 9, 9, 10, 10, 12, 12, 13, 12, 12, 11, 12, 12, 13, 13, 13, 13, 13];

% transporter definition
total_capacity = 11000;
num_decks = 4;
capacity = [3000, 3000, 1000, 4000];

% ways out of decks
num_ways_out = 2;
paths_out = array3d(decks, ways_out, decks, [
% ways out of deck d1
2, 4, 0, 0, 3, 4, 0, 0, 

% ways out of deck d2
4, 0, 0, 0, 0, 0, 0, 0,	

% ways out of deck d3
4, 0, 0, 0, 0, 0, 0, 0,	

% ways out of deck d4
0, 0, 0, 0,	0, 0, 0, 0,	

]);

